param set_len = 20;
param target := 2931850;
param values := [1] 465426 [2] 332418 [3] 161131 [4] 31574 [5] 434732 [6] 130980 [7] 475052 [8] 515977 [9] 264939 [10] 167204 [11] 480447 [12] 378644 [13] 30324 [14] 197994 [15] 402204 [16] 131439 [17] 159839 [18] 88526 [19] 385922 [20] 11048 ;
